#######################################
### Exact MIP solver for the HHCRSP ###
#######################################
-- Instance file: new-instances/HHCRSP_400_80_68_0.8_R_RC.txt
-- Max threads: 4
-- Time limit: 999999 seconds
-- Use initial solution: No
Trivial flow violations prevented generating 2871470 variables.
Version identifier: 20.1.0.0 | 2020-11-10 | 9bedb6d68
CPXPARAM_Threads                                 4
CPXPARAM_Emphasis_Memory                         1
CPXPARAM_TimeLimit                               999999
Tried aggregator 1 time.
Presolve has eliminated 92508 rows and 23625 columns...
LP Presolve eliminated 92508 rows and 23625 columns.
Reduced LP has 3573788 rows, 3374919 columns, and 112982604 nonzeros.
Presolve time = 118.80 sec. (23623.76 ticks)
Compression time = 25.70 sec. (6.74 ticks)
Compression reduced 1596.37 MB A matrix to 479.82 MB
Symmetry aggregator did 6214624 additional substitutions.
Elapsed time = 146.31 sec. (24548.69 ticks, 1 iterations)

Iteration log . . .
Iteration:     1   Dual objective     =             0.000000
Iteration:  1763   Dual objective     =           472.000000

Dual crossover.
  Dual:  Fixing 3595 variables.
     3594 DMoves:  Infeasibility  4.00726535e-12  Objective  4.73000000e+02
        0 DMoves:  Infeasibility  1.29841369e-12  Objective  4.73000000e+02
  Dual:  Pushed 43, exchanged 3552.
  Primal:  Fixing 3432 variables.
     3431 PMoves:  Infeasibility  1.11022302e-16  Objective  4.73000000e+02
        0 PMoves:  Infeasibility  1.11022302e-16  Objective  4.73000000e+02
  Primal:  Pushed 3225, exchanged 207.

Solution status from MIP model:
-- Processing time: 202.772 sec.
-- Memory used: 2344.54 MB
-- Best bound: inf
-- Obj value: 473
-- Gap: inf%
-- Total distance: 1419
-- Total tardiness: 0
-- Largest tardiness: 0
